ETAPAS=12;
PALLETS=6;
BANDAS=3;
NIVELES=3;
PROFUNDIDAD=2;

A=[[0,0,0,0,1,0,0,0,0,0,0,0,0],[0,0,0,0,0,0,0,0,0,1,0,0,0],[0,0,0,1,0,0,0,0,0,0,0,0,0],[0,0,0,0,0,0,0,1,0,0,0,0,0],[0,1,0,0,0,0,0,0,0,0,0,0,0],[0,0,1,0,0,0,0,0,0,0,0,0,0]];
D=[[0,0,0,0,0,0,0,0,1,0,0,0,0],[0,0,0,0,0,0,0,0,0,0,0,1,0],[0,0,0,0,0,0,0,0,0,0,0,0,1],[0,0,0,0,0,0,0,0,0,0,1,0,0],[0,0,0,0,0,0,1,0,0,0,0,0,0],[0,0,0,0,0,1,0,0,0,0,0,0,0]];
Q=[[0,0,0,0,1,1,1,1,1,0,0,0,0],[0,0,0,0,0,0,0,0,0,1,1,1,0],[0,0,0,1,1,1,1,1,1,1,1,1,1],[0,0,0,0,0,0,0,1,1,1,1,0,0],[0,1,1,1,1,1,1,0,0,0,0,0,0],[0,0,1,1,1,1,0,0,0,0,0,0,0]];